0 0 0 0
0 1 2 0
0 2 2 0
0 3 0 0
0 4 2 6
0 5 0 6
0 6 2 6
0 7 0 15
0 8 2 6
0 9 0 19
0 10 2 14
0 11 2 13
0 12 2 4
0 13 0 23
0 14 0 15
0 15 1 19
0 16 2 19
0 17 1 22
0 18 1 19
0 19 0 23
0 20 1 13
0 21 1 25
0 22 0 18
0 23 1 28
0 24 0 21
0 25 0 25
0 26 2 23
0 27 0 32
0 28 0 33
0 29 0 29
0 30 1 25
0 31 0 34
